J = 3;
K = 3;
E = [20.0, 18.0, 5.0];
A = [0.5, 0.3, 1.0];
G = [0.0, 0.0, 0.0];
F = [5.0, 7.0, 6.0];
V = [0.1, 0.125, 0.15];
piso = [50.0, 80.0, 40.0];
techo = [300.0, 200.0, 140.0];
Sup = [180.0, 100.0, 100.0];
Inf = [300.0, 150.0, 100.0];
P = [0.0, 0.0, 0.0];
D = [150.0, 500.0, 400.0];
R = [15.0, 50.0, 40.0];
